c nIsolatedPIs 0
c maxPI 20
p cnf 691 2014
c gate 21 7 16 0
7 -21 0
16 -21 0
-7 -16 21 0
c gate 22 9 14 0
9 -22 0
14 -22 0
-9 -14 22 0
c gate 23 8 15 0
8 -23 0
15 -23 0
-8 -15 23 0
c gate 24 -22 -23 0
-22 -24 0
-23 -24 0
22 23 24 0
c gate 25 22 23 0
22 -25 0
23 -25 0
-22 -23 25 0
c gate 26 -24 -25 0
-24 -26 0
-25 -26 0
24 25 26 0
c gate 27 -21 -26 0
-21 -27 0
-26 -27 0
21 26 27 0
c gate 28 21 26 0
21 -28 0
26 -28 0
-21 -26 28 0
c gate 29 -27 -28 0
-27 -29 0
-28 -29 0
27 28 29 0
c gate 30 9 12 0
9 -30 0
12 -30 0
-9 -12 30 0
c gate 31 10 13 0
10 -31 0
13 -31 0
-10 -13 31 0
c gate 32 -30 31 0
-30 -32 0
31 -32 0
30 -31 32 0
c gate 33 29 32 0
29 -33 0
32 -33 0
-29 -32 33 0
c gate 34 10 12 0
10 -34 0
12 -34 0
-10 -12 34 0
c gate 35 9 13 0
9 -35 0
13 -35 0
-9 -13 35 0
c gate 36 34 35 0
34 -36 0
35 -36 0
-34 -35 36 0
c gate 37 -33 -36 0
-33 -37 0
-36 -37 0
33 36 37 0
c gate 38 8 16 0
8 -38 0
16 -38 0
-8 -16 38 0
c gate 39 9 15 0
9 -39 0
15 -39 0
-9 -15 39 0
c gate 40 10 14 0
10 -40 0
14 -40 0
-10 -14 40 0
c gate 41 39 40 0
39 -41 0
40 -41 0
-39 -40 41 0
c gate 42 -39 -40 0
-39 -42 0
-40 -42 0
39 40 42 0
c gate 43 -41 -42 0
-41 -43 0
-42 -43 0
41 42 43 0
c gate 44 38 43 0
38 -44 0
43 -44 0
-38 -43 44 0
c gate 45 -38 -43 0
-38 -45 0
-43 -45 0
38 43 45 0
c gate 46 -44 -45 0
-44 -46 0
-45 -46 0
44 45 46 0
c gate 47 -37 46 0
-37 -47 0
46 -47 0
37 -46 47 0
c gate 48 6 17 0
6 -48 0
17 -48 0
-6 -17 48 0
c gate 49 5 18 0
5 -49 0
18 -49 0
-5 -18 49 0
c gate 50 48 49 0
48 -50 0
49 -50 0
-48 -49 50 0
c gate 51 4 19 0
4 -51 0
19 -51 0
-4 -19 51 0
c gate 52 -48 -49 0
-48 -52 0
-49 -52 0
48 49 52 0
c gate 53 -50 -52 0
-50 -53 0
-52 -53 0
50 52 53 0
c gate 54 51 53 0
51 -54 0
53 -54 0
-51 -53 54 0
c gate 55 -50 -54 0
-50 -55 0
-54 -55 0
50 54 55 0
c gate 56 5 19 0
5 -56 0
19 -56 0
-5 -19 56 0
c gate 57 6 18 0
6 -57 0
18 -57 0
-6 -18 57 0
c gate 58 7 17 0
7 -58 0
17 -58 0
-7 -17 58 0
c gate 59 57 58 0
57 -59 0
58 -59 0
-57 -58 59 0
c gate 60 -57 -58 0
-57 -60 0
-58 -60 0
57 58 60 0
c gate 61 -59 -60 0
-59 -61 0
-60 -61 0
59 60 61 0
c gate 62 56 61 0
56 -62 0
61 -62 0
-56 -61 62 0
c gate 63 -56 -61 0
-56 -63 0
-61 -63 0
56 61 63 0
c gate 64 -62 -63 0
-62 -64 0
-63 -64 0
62 63 64 0
c gate 65 -25 -28 0
-25 -65 0
-28 -65 0
25 28 65 0
c gate 66 64 -65 0
64 -66 0
-65 -66 0
-64 65 66 0
c gate 67 -64 65 0
-64 -67 0
65 -67 0
64 -65 67 0
c gate 68 -66 -67 0
-66 -68 0
-67 -68 0
66 67 68 0
c gate 69 55 -68 0
55 -69 0
-68 -69 0
-55 68 69 0
c gate 70 -55 68 0
-55 -70 0
68 -70 0
55 -68 70 0
c gate 71 -69 -70 0
-69 -71 0
-70 -71 0
69 70 71 0
c gate 72 37 -46 0
37 -72 0
-46 -72 0
-37 46 72 0
c gate 73 -47 -72 0
-47 -73 0
-72 -73 0
47 72 73 0
c gate 74 71 73 0
71 -74 0
73 -74 0
-71 -73 74 0
c gate 75 -47 -74 0
-47 -75 0
-74 -75 0
47 74 75 0
c gate 76 10 15 0
10 -76 0
15 -76 0
-10 -15 76 0
c gate 77 9 16 0
9 -77 0
16 -77 0
-9 -16 77 0
c gate 78 -76 -77 0
-76 -78 0
-77 -78 0
76 77 78 0
c gate 79 76 77 0
76 -79 0
77 -79 0
-76 -77 79 0
c gate 80 -78 -79 0
-78 -80 0
-79 -80 0
78 79 80 0
c gate 81 -59 -62 0
-59 -81 0
-62 -81 0
59 62 81 0
c gate 82 6 19 0
6 -82 0
19 -82 0
-6 -19 82 0
c gate 83 7 18 0
7 -83 0
18 -83 0
-7 -18 83 0
c gate 84 8 17 0
8 -84 0
17 -84 0
-8 -17 84 0
c gate 85 -83 -84 0
-83 -85 0
-84 -85 0
83 84 85 0
c gate 86 83 84 0
83 -86 0
84 -86 0
-83 -84 86 0
c gate 87 -85 -86 0
-85 -87 0
-86 -87 0
85 86 87 0
c gate 88 82 87 0
82 -88 0
87 -88 0
-82 -87 88 0
c gate 89 -82 -87 0
-82 -89 0
-87 -89 0
82 87 89 0
c gate 90 -88 -89 0
-88 -90 0
-89 -90 0
88 89 90 0
c gate 91 -41 -44 0
-41 -91 0
-44 -91 0
41 44 91 0
c gate 92 90 -91 0
90 -92 0
-91 -92 0
-90 91 92 0
c gate 93 -90 91 0
-90 -93 0
91 -93 0
90 -91 93 0
c gate 94 -92 -93 0
-92 -94 0
-93 -94 0
92 93 94 0
c gate 95 81 -94 0
81 -95 0
-94 -95 0
-81 94 95 0
c gate 96 -81 94 0
-81 -96 0
94 -96 0
81 -94 96 0
c gate 97 -95 -96 0
-95 -97 0
-96 -97 0
95 96 97 0
c gate 98 80 97 0
80 -98 0
97 -98 0
-80 -97 98 0
c gate 99 -80 -97 0
-80 -99 0
-97 -99 0
80 97 99 0
c gate 100 -98 -99 0
-98 -100 0
-99 -100 0
98 99 100 0
c gate 101 -75 100 0
-75 -101 0
100 -101 0
75 -100 101 0
c gate 102 -66 -70 0
-66 -102 0
-70 -102 0
66 70 102 0
c gate 103 75 -100 0
75 -103 0
-100 -103 0
-75 100 103 0
c gate 104 -101 -103 0
-101 -104 0
-103 -104 0
101 103 104 0
c gate 105 -102 104 0
-102 -105 0
104 -105 0
102 -104 105 0
c gate 106 -101 -105 0
-101 -106 0
-105 -106 0
101 105 106 0
c gate 107 -92 -96 0
-92 -107 0
-96 -107 0
92 96 107 0
c gate 108 10 16 0
10 -108 0
16 -108 0
-10 -16 108 0
c gate 109 -86 -88 0
-86 -109 0
-88 -109 0
86 88 109 0
c gate 110 7 19 0
7 -110 0
19 -110 0
-7 -19 110 0
c gate 111 8 18 0
8 -111 0
18 -111 0
-8 -18 111 0
c gate 112 9 17 0
9 -112 0
17 -112 0
-9 -17 112 0
c gate 113 -111 -112 0
-111 -113 0
-112 -113 0
111 112 113 0
c gate 114 111 112 0
111 -114 0
112 -114 0
-111 -112 114 0
c gate 115 -113 -114 0
-113 -115 0
-114 -115 0
113 114 115 0
c gate 116 110 115 0
110 -116 0
115 -116 0
-110 -115 116 0
c gate 117 -110 -115 0
-110 -117 0
-115 -117 0
110 115 117 0
c gate 118 -116 -117 0
-116 -118 0
-117 -118 0
116 117 118 0
c gate 119 79 118 0
79 -119 0
118 -119 0
-79 -118 119 0
c gate 120 -79 -118 0
-79 -120 0
-118 -120 0
79 118 120 0
c gate 121 -119 -120 0
-119 -121 0
-120 -121 0
119 120 121 0
c gate 122 109 -121 0
109 -122 0
-121 -122 0
-109 121 122 0
c gate 123 -109 121 0
-109 -123 0
121 -123 0
109 -121 123 0
c gate 124 -122 -123 0
-122 -124 0
-123 -124 0
122 123 124 0
c gate 125 108 124 0
108 -125 0
124 -125 0
-108 -124 125 0
c gate 126 -108 -124 0
-108 -126 0
-124 -126 0
108 124 126 0
c gate 127 -125 -126 0
-125 -127 0
-126 -127 0
125 126 127 0
c gate 128 98 127 0
98 -128 0
127 -128 0
-98 -127 128 0
c gate 129 -98 -127 0
-98 -129 0
-127 -129 0
98 127 129 0
c gate 130 -128 -129 0
-128 -130 0
-129 -130 0
128 129 130 0
c gate 131 -107 130 0
-107 -131 0
130 -131 0
107 -130 131 0
c gate 132 107 -130 0
107 -132 0
-130 -132 0
-107 130 132 0
c gate 133 -131 -132 0
-131 -133 0
-132 -133 0
131 132 133 0
c gate 134 -106 133 0
-106 -134 0
133 -134 0
106 -133 134 0
c gate 135 6 20 0
6 -135 0
20 -135 0
-6 -20 135 0
c gate 136 106 -133 0
106 -136 0
-133 -136 0
-106 133 136 0
c gate 137 -134 -136 0
-134 -137 0
-136 -137 0
134 136 137 0
c gate 138 135 137 0
135 -138 0
137 -138 0
-135 -137 138 0
c gate 139 -134 -138 0
-134 -139 0
-138 -139 0
134 138 139 0
c gate 140 7 20 0
7 -140 0
20 -140 0
-7 -20 140 0
c gate 141 -128 -131 0
-128 -141 0
-131 -141 0
128 131 141 0
c gate 142 -119 -123 0
-119 -142 0
-123 -142 0
119 123 142 0
c gate 143 -114 -116 0
-114 -143 0
-116 -143 0
114 116 143 0
c gate 144 8 19 0
8 -144 0
19 -144 0
-8 -19 144 0
c gate 145 9 18 0
9 -145 0
18 -145 0
-9 -18 145 0
c gate 146 10 17 0
10 -146 0
17 -146 0
-10 -17 146 0
c gate 147 -145 -146 0
-145 -147 0
-146 -147 0
145 146 147 0
c gate 148 145 146 0
145 -148 0
146 -148 0
-145 -146 148 0
c gate 149 -147 -148 0
-147 -149 0
-148 -149 0
147 148 149 0
c gate 150 144 149 0
144 -150 0
149 -150 0
-144 -149 150 0
c gate 151 -144 -149 0
-144 -151 0
-149 -151 0
144 149 151 0
c gate 152 -150 -151 0
-150 -152 0
-151 -152 0
150 151 152 0
c gate 153 -143 152 0
-143 -153 0
152 -153 0
143 -152 153 0
c gate 154 143 -152 0
143 -154 0
-152 -154 0
-143 152 154 0
c gate 155 -153 -154 0
-153 -155 0
-154 -155 0
153 154 155 0
c gate 156 125 155 0
125 -156 0
155 -156 0
-125 -155 156 0
c gate 157 -125 -155 0
-125 -157 0
-155 -157 0
125 155 157 0
c gate 158 -156 -157 0
-156 -158 0
-157 -158 0
156 157 158 0
c gate 159 -142 158 0
-142 -159 0
158 -159 0
142 -158 159 0
c gate 160 142 -158 0
142 -160 0
-158 -160 0
-142 158 160 0
c gate 161 -159 -160 0
-159 -161 0
-160 -161 0
159 160 161 0
c gate 162 -141 161 0
-141 -162 0
161 -162 0
141 -161 162 0
c gate 163 141 -161 0
141 -163 0
-161 -163 0
-141 161 163 0
c gate 164 -162 -163 0
-162 -164 0
-163 -164 0
162 163 164 0
c gate 165 140 164 0
140 -165 0
164 -165 0
-140 -164 165 0
c gate 166 -140 -164 0
-140 -166 0
-164 -166 0
140 164 166 0
c gate 167 -165 -166 0
-165 -167 0
-166 -167 0
165 166 167 0
c gate 168 139 -167 0
139 -168 0
-167 -168 0
-139 167 168 0
c gate 169 -34 -35 0
-34 -169 0
-35 -169 0
34 35 169 0
c gate 170 -36 -169 0
-36 -170 0
-169 -170 0
36 169 170 0
c gate 171 10 11 0
10 -171 0
11 -171 0
-10 -11 171 0
c gate 172 30 171 0
30 -172 0
171 -172 0
-30 -171 172 0
c gate 173 8 13 0
8 -173 0
13 -173 0
-8 -13 173 0
c gate 174 -30 -171 0
-30 -174 0
-171 -174 0
30 171 174 0
c gate 175 -172 -174 0
-172 -175 0
-174 -175 0
172 174 175 0
c gate 176 173 175 0
173 -176 0
175 -176 0
-173 -175 176 0
c gate 177 -172 -176 0
-172 -177 0
-176 -177 0
172 176 177 0
c gate 178 170 -177 0
170 -178 0
-177 -178 0
-170 177 178 0
c gate 179 6 16 0
6 -179 0
16 -179 0
-6 -16 179 0
c gate 180 8 14 0
8 -180 0
14 -180 0
-8 -14 180 0
c gate 181 7 15 0
7 -181 0
15 -181 0
-7 -15 181 0
c gate 182 -180 -181 0
-180 -182 0
-181 -182 0
180 181 182 0
c gate 183 180 181 0
180 -183 0
181 -183 0
-180 -181 183 0
c gate 184 -182 -183 0
-182 -184 0
-183 -184 0
182 183 184 0
c gate 185 -179 -184 0
-179 -185 0
-184 -185 0
179 184 185 0
c gate 186 179 184 0
179 -186 0
184 -186 0
-179 -184 186 0
c gate 187 -185 -186 0
-185 -187 0
-186 -187 0
185 186 187 0
c gate 188 -170 177 0
-170 -188 0
177 -188 0
170 -177 188 0
c gate 189 -178 -188 0
-178 -189 0
-188 -189 0
178 188 189 0
c gate 190 187 189 0
187 -190 0
189 -190 0
-187 -189 190 0
c gate 191 -178 -190 0
-178 -191 0
-190 -191 0
178 190 191 0
c gate 192 -29 -32 0
-29 -192 0
-32 -192 0
29 32 192 0
c gate 193 -33 -192 0
-33 -193 0
-192 -193 0
33 192 193 0
c gate 194 -191 193 0
-191 -194 0
193 -194 0
191 -193 194 0
c gate 195 5 17 0
5 -195 0
17 -195 0
-5 -17 195 0
c gate 196 4 18 0
4 -196 0
18 -196 0
-4 -18 196 0
c gate 197 195 196 0
195 -197 0
196 -197 0
-195 -196 197 0
c gate 198 3 19 0
3 -198 0
19 -198 0
-3 -19 198 0
c gate 199 -195 -196 0
-195 -199 0
-196 -199 0
195 196 199 0
c gate 200 -197 -199 0
-197 -200 0
-199 -200 0
197 199 200 0
c gate 201 198 200 0
198 -201 0
200 -201 0
-198 -200 201 0
c gate 202 -197 -201 0
-197 -202 0
-201 -202 0
197 201 202 0
c gate 203 -51 -53 0
-51 -203 0
-53 -203 0
51 53 203 0
c gate 204 -54 -203 0
-54 -204 0
-203 -204 0
54 203 204 0
c gate 205 -183 -186 0
-183 -205 0
-186 -205 0
183 186 205 0
c gate 206 204 -205 0
204 -206 0
-205 -206 0
-204 205 206 0
c gate 207 -204 205 0
-204 -207 0
205 -207 0
204 -205 207 0
c gate 208 -206 -207 0
-206 -208 0
-207 -208 0
206 207 208 0
c gate 209 202 -208 0
202 -209 0
-208 -209 0
-202 208 209 0
c gate 210 -202 208 0
-202 -210 0
208 -210 0
202 -208 210 0
c gate 211 -209 -210 0
-209 -211 0
-210 -211 0
209 210 211 0
c gate 212 191 -193 0
191 -212 0
-193 -212 0
-191 193 212 0
c gate 213 -194 -212 0
-194 -213 0
-212 -213 0
194 212 213 0
c gate 214 211 213 0
211 -214 0
213 -214 0
-211 -213 214 0
c gate 215 -194 -214 0
-194 -215 0
-214 -215 0
194 214 215 0
c gate 216 -71 -73 0
-71 -216 0
-73 -216 0
71 73 216 0
c gate 217 -74 -216 0
-74 -217 0
-216 -217 0
74 216 217 0
c gate 218 -215 217 0
-215 -218 0
217 -218 0
215 -217 218 0
c gate 219 -206 -210 0
-206 -219 0
-210 -219 0
206 210 219 0
c gate 220 215 -217 0
215 -220 0
-217 -220 0
-215 217 220 0
c gate 221 -218 -220 0
-218 -221 0
-220 -221 0
218 220 221 0
c gate 222 -219 221 0
-219 -222 0
221 -222 0
219 -221 222 0
c gate 223 -218 -222 0
-218 -223 0
-222 -223 0
218 222 223 0
c gate 224 102 -104 0
102 -224 0
-104 -224 0
-102 104 224 0
c gate 225 -105 -224 0
-105 -225 0
-224 -225 0
105 224 225 0
c gate 226 -223 225 0
-223 -226 0
225 -226 0
223 -225 226 0
c gate 227 5 20 0
5 -227 0
20 -227 0
-5 -20 227 0
c gate 228 223 -225 0
223 -228 0
-225 -228 0
-223 225 228 0
c gate 229 -226 -228 0
-226 -229 0
-228 -229 0
226 228 229 0
c gate 230 227 229 0
227 -230 0
229 -230 0
-227 -229 230 0
c gate 231 -226 -230 0
-226 -231 0
-230 -231 0
226 230 231 0
c gate 232 -135 -137 0
-135 -232 0
-137 -232 0
135 137 232 0
c gate 233 -138 -232 0
-138 -233 0
-232 -233 0
138 232 233 0
c gate 234 -231 233 0
-231 -234 0
233 -234 0
231 -233 234 0
c gate 235 -139 167 0
-139 -235 0
167 -235 0
139 -167 235 0
c gate 236 -234 -235 0
-234 -236 0
-235 -236 0
234 235 236 0
c gate 237 7 12 0
7 -237 0
12 -237 0
-7 -12 237 0
c gate 238 8 11 0
8 -238 0
11 -238 0
-8 -11 238 0
c gate 239 237 238 0
237 -239 0
238 -239 0
-237 -238 239 0
c gate 240 6 13 0
6 -240 0
13 -240 0
-6 -13 240 0
c gate 241 -237 -238 0
-237 -241 0
-238 -241 0
237 238 241 0
c gate 242 -239 -241 0
-239 -242 0
-241 -242 0
239 241 242 0
c gate 243 240 242 0
240 -243 0
242 -243 0
-240 -242 243 0
c gate 244 -239 -243 0
-239 -244 0
-243 -244 0
239 243 244 0
c gate 245 7 13 0
7 -245 0
13 -245 0
-7 -13 245 0
c gate 246 9 11 0
9 -246 0
11 -246 0
-9 -11 246 0
c gate 247 8 12 0
8 -247 0
12 -247 0
-8 -12 247 0
c gate 248 -246 -247 0
-246 -248 0
-247 -248 0
246 247 248 0
c gate 249 246 247 0
246 -249 0
247 -249 0
-246 -247 249 0
c gate 250 -248 -249 0
-248 -250 0
-249 -250 0
248 249 250 0
c gate 251 245 250 0
245 -251 0
250 -251 0
-245 -250 251 0
c gate 252 -245 -250 0
-245 -252 0
-250 -252 0
245 250 252 0
c gate 253 -251 -252 0
-251 -253 0
-252 -253 0
251 252 253 0
c gate 254 -244 253 0
-244 -254 0
253 -254 0
244 -253 254 0
c gate 255 4 16 0
4 -255 0
16 -255 0
-4 -16 255 0
c gate 256 5 15 0
5 -256 0
15 -256 0
-5 -15 256 0
c gate 257 6 14 0
6 -257 0
14 -257 0
-6 -14 257 0
c gate 258 -256 -257 0
-256 -258 0
-257 -258 0
256 257 258 0
c gate 259 256 257 0
256 -259 0
257 -259 0
-256 -257 259 0
c gate 260 -258 -259 0
-258 -260 0
-259 -260 0
258 259 260 0
c gate 261 -255 -260 0
-255 -261 0
-260 -261 0
255 260 261 0
c gate 262 255 260 0
255 -262 0
260 -262 0
-255 -260 262 0
c gate 263 -261 -262 0
-261 -263 0
-262 -263 0
261 262 263 0
c gate 264 244 -253 0
244 -264 0
-253 -264 0
-244 253 264 0
c gate 265 -254 -264 0
-254 -265 0
-264 -265 0
254 264 265 0
c gate 266 263 265 0
263 -266 0
265 -266 0
-263 -265 266 0
c gate 267 -254 -266 0
-254 -267 0
-266 -267 0
254 266 267 0
c gate 268 5 16 0
5 -268 0
16 -268 0
-5 -16 268 0
c gate 269 7 14 0
7 -269 0
14 -269 0
-7 -14 269 0
c gate 270 6 15 0
6 -270 0
15 -270 0
-6 -15 270 0
c gate 271 -269 -270 0
-269 -271 0
-270 -271 0
269 270 271 0
c gate 272 269 270 0
269 -272 0
270 -272 0
-269 -270 272 0
c gate 273 -271 -272 0
-271 -273 0
-272 -273 0
271 272 273 0
c gate 274 -268 -273 0
-268 -274 0
-273 -274 0
268 273 274 0
c gate 275 268 273 0
268 -275 0
273 -275 0
-268 -273 275 0
c gate 276 -274 -275 0
-274 -276 0
-275 -276 0
274 275 276 0
c gate 277 -249 -251 0
-249 -277 0
-251 -277 0
249 251 277 0
c gate 278 -173 -175 0
-173 -278 0
-175 -278 0
173 175 278 0
c gate 279 -176 -278 0
-176 -279 0
-278 -279 0
176 278 279 0
c gate 280 -277 279 0
-277 -280 0
279 -280 0
277 -279 280 0
c gate 281 277 -279 0
277 -281 0
-279 -281 0
-277 279 281 0
c gate 282 -280 -281 0
-280 -282 0
-281 -282 0
280 281 282 0
c gate 283 276 282 0
276 -283 0
282 -283 0
-276 -282 283 0
c gate 284 -276 -282 0
-276 -284 0
-282 -284 0
276 282 284 0
c gate 285 -283 -284 0
-283 -285 0
-284 -285 0
283 284 285 0
c gate 286 -267 285 0
-267 -286 0
285 -286 0
267 -285 286 0
c gate 287 2 18 0
2 -287 0
18 -287 0
-2 -18 287 0
c gate 288 3 17 0
3 -288 0
17 -288 0
-3 -17 288 0
c gate 289 287 288 0
287 -289 0
288 -289 0
-287 -288 289 0
c gate 290 1 19 0
1 -290 0
19 -290 0
-1 -19 290 0
c gate 291 -287 -288 0
-287 -291 0
-288 -291 0
287 288 291 0
c gate 292 -289 -291 0
-289 -292 0
-291 -292 0
289 291 292 0
c gate 293 290 292 0
290 -293 0
292 -293 0
-290 -292 293 0
c gate 294 -289 -293 0
-289 -294 0
-293 -294 0
289 293 294 0
c gate 295 2 19 0
2 -295 0
19 -295 0
-2 -19 295 0
c gate 296 4 17 0
4 -296 0
17 -296 0
-4 -17 296 0
c gate 297 3 18 0
3 -297 0
18 -297 0
-3 -18 297 0
c gate 298 -296 -297 0
-296 -298 0
-297 -298 0
296 297 298 0
c gate 299 296 297 0
296 -299 0
297 -299 0
-296 -297 299 0
c gate 300 -298 -299 0
-298 -300 0
-299 -300 0
298 299 300 0
c gate 301 295 300 0
295 -301 0
300 -301 0
-295 -300 301 0
c gate 302 -295 -300 0
-295 -302 0
-300 -302 0
295 300 302 0
c gate 303 -301 -302 0
-301 -303 0
-302 -303 0
301 302 303 0
c gate 304 -259 -262 0
-259 -304 0
-262 -304 0
259 262 304 0
c gate 305 303 -304 0
303 -305 0
-304 -305 0
-303 304 305 0
c gate 306 -303 304 0
-303 -306 0
304 -306 0
303 -304 306 0
c gate 307 -305 -306 0
-305 -307 0
-306 -307 0
305 306 307 0
c gate 308 294 -307 0
294 -308 0
-307 -308 0
-294 307 308 0
c gate 309 -294 307 0
-294 -309 0
307 -309 0
294 -307 309 0
c gate 310 -308 -309 0
-308 -310 0
-309 -310 0
308 309 310 0
c gate 311 267 -285 0
267 -311 0
-285 -311 0
-267 285 311 0
c gate 312 -286 -311 0
-286 -312 0
-311 -312 0
286 311 312 0
c gate 313 310 312 0
310 -313 0
312 -313 0
-310 -312 313 0
c gate 314 -286 -313 0
-286 -314 0
-313 -314 0
286 313 314 0
c gate 315 -299 -301 0
-299 -315 0
-301 -315 0
299 301 315 0
c gate 316 -198 -200 0
-198 -316 0
-200 -316 0
198 200 316 0
c gate 317 -201 -316 0
-201 -317 0
-316 -317 0
201 316 317 0
c gate 318 -272 -275 0
-272 -318 0
-275 -318 0
272 275 318 0
c gate 319 317 -318 0
317 -319 0
-318 -319 0
-317 318 319 0
c gate 320 -317 318 0
-317 -320 0
318 -320 0
317 -318 320 0
c gate 321 -319 -320 0
-319 -321 0
-320 -321 0
319 320 321 0
c gate 322 315 -321 0
315 -322 0
-321 -322 0
-315 321 322 0
c gate 323 -315 321 0
-315 -323 0
321 -323 0
315 -321 323 0
c gate 324 -322 -323 0
-322 -324 0
-323 -324 0
322 323 324 0
c gate 325 -280 -283 0
-280 -325 0
-283 -325 0
280 283 325 0
c gate 326 -187 -189 0
-187 -326 0
-189 -326 0
187 189 326 0
c gate 327 -190 -326 0
-190 -327 0
-326 -327 0
190 326 327 0
c gate 328 -325 327 0
-325 -328 0
327 -328 0
325 -327 328 0
c gate 329 325 -327 0
325 -329 0
-327 -329 0
-325 327 329 0
c gate 330 -328 -329 0
-328 -330 0
-329 -330 0
328 329 330 0
c gate 331 324 330 0
324 -331 0
330 -331 0
-324 -330 331 0
c gate 332 -324 -330 0
-324 -332 0
-330 -332 0
324 330 332 0
c gate 333 -331 -332 0
-331 -333 0
-332 -333 0
331 332 333 0
c gate 334 -314 333 0
-314 -334 0
333 -334 0
314 -333 334 0
c gate 335 -305 -309 0
-305 -335 0
-309 -335 0
305 309 335 0
c gate 336 314 -333 0
314 -336 0
-333 -336 0
-314 333 336 0
c gate 337 -334 -336 0
-334 -337 0
-336 -337 0
334 336 337 0
c gate 338 -335 337 0
-335 -338 0
337 -338 0
335 -337 338 0
c gate 339 -334 -338 0
-334 -339 0
-338 -339 0
334 338 339 0
c gate 340 -319 -323 0
-319 -340 0
-323 -340 0
319 323 340 0
c gate 341 -328 -331 0
-328 -341 0
-331 -341 0
328 331 341 0
c gate 342 -211 -213 0
-211 -342 0
-213 -342 0
211 213 342 0
c gate 343 -214 -342 0
-214 -343 0
-342 -343 0
214 342 343 0
c gate 344 -341 343 0
-341 -344 0
343 -344 0
341 -343 344 0
c gate 345 341 -343 0
341 -345 0
-343 -345 0
-341 343 345 0
c gate 346 -344 -345 0
-344 -346 0
-345 -346 0
344 345 346 0
c gate 347 -340 346 0
-340 -347 0
346 -347 0
340 -346 347 0
c gate 348 340 -346 0
340 -348 0
-346 -348 0
-340 346 348 0
c gate 349 -347 -348 0
-347 -349 0
-348 -349 0
347 348 349 0
c gate 350 -339 349 0
-339 -350 0
349 -350 0
339 -349 350 0
c gate 351 3 20 0
3 -351 0
20 -351 0
-3 -20 351 0
c gate 352 339 -349 0
339 -352 0
-349 -352 0
-339 349 352 0
c gate 353 -350 -352 0
-350 -353 0
-352 -353 0
350 352 353 0
c gate 354 351 353 0
351 -354 0
353 -354 0
-351 -353 354 0
c gate 355 -350 -354 0
-350 -355 0
-354 -355 0
350 354 355 0
c gate 356 4 20 0
4 -356 0
20 -356 0
-4 -20 356 0
c gate 357 -344 -347 0
-344 -357 0
-347 -357 0
344 347 357 0
c gate 358 219 -221 0
219 -358 0
-221 -358 0
-219 221 358 0
c gate 359 -222 -358 0
-222 -359 0
-358 -359 0
222 358 359 0
c gate 360 -357 359 0
-357 -360 0
359 -360 0
357 -359 360 0
c gate 361 357 -359 0
357 -361 0
-359 -361 0
-357 359 361 0
c gate 362 -360 -361 0
-360 -362 0
-361 -362 0
360 361 362 0
c gate 363 356 362 0
356 -363 0
362 -363 0
-356 -362 363 0
c gate 364 -356 -362 0
-356 -364 0
-362 -364 0
356 362 364 0
c gate 365 -363 -364 0
-363 -365 0
-364 -365 0
363 364 365 0
c gate 366 -355 365 0
-355 -366 0
365 -366 0
355 -365 366 0
c gate 367 -360 -363 0
-360 -367 0
-363 -367 0
360 363 367 0
c gate 368 -227 -229 0
-227 -368 0
-229 -368 0
227 229 368 0
c gate 369 -230 -368 0
-230 -369 0
-368 -369 0
230 368 369 0
c gate 370 -367 369 0
-367 -370 0
369 -370 0
367 -369 370 0
c gate 371 -366 -370 0
-366 -371 0
-370 -371 0
366 370 371 0
c gate 372 7 11 0
7 -372 0
11 -372 0
-7 -11 372 0
c gate 373 6 12 0
6 -373 0
12 -373 0
-6 -12 373 0
c gate 374 372 373 0
372 -374 0
373 -374 0
-372 -373 374 0
c gate 375 -372 -373 0
-372 -375 0
-373 -375 0
372 373 375 0
c gate 376 -374 -375 0
-374 -376 0
-375 -376 0
374 375 376 0
c gate 377 5 13 0
5 -377 0
13 -377 0
-5 -13 377 0
c gate 378 376 377 0
376 -378 0
377 -378 0
-376 -377 378 0
c gate 379 -374 -378 0
-374 -379 0
-378 -379 0
374 378 379 0
c gate 380 -240 -242 0
-240 -380 0
-242 -380 0
240 242 380 0
c gate 381 -243 -380 0
-243 -381 0
-380 -381 0
243 380 381 0
c gate 382 -379 381 0
-379 -382 0
381 -382 0
379 -381 382 0
c gate 383 3 16 0
3 -383 0
16 -383 0
-3 -16 383 0
c gate 384 5 14 0
5 -384 0
14 -384 0
-5 -14 384 0
c gate 385 4 15 0
4 -385 0
15 -385 0
-4 -15 385 0
c gate 386 -384 -385 0
-384 -386 0
-385 -386 0
384 385 386 0
c gate 387 384 385 0
384 -387 0
385 -387 0
-384 -385 387 0
c gate 388 -386 -387 0
-386 -388 0
-387 -388 0
386 387 388 0
c gate 389 -383 -388 0
-383 -389 0
-388 -389 0
383 388 389 0
c gate 390 383 388 0
383 -390 0
388 -390 0
-383 -388 390 0
c gate 391 -389 -390 0
-389 -391 0
-390 -391 0
389 390 391 0
c gate 392 379 -381 0
379 -392 0
-381 -392 0
-379 381 392 0
c gate 393 -382 -392 0
-382 -393 0
-392 -393 0
382 392 393 0
c gate 394 391 393 0
391 -394 0
393 -394 0
-391 -393 394 0
c gate 395 -382 -394 0
-382 -395 0
-394 -395 0
382 394 395 0
c gate 396 -263 -265 0
-263 -396 0
-265 -396 0
263 265 396 0
c gate 397 -266 -396 0
-266 -397 0
-396 -397 0
266 396 397 0
c gate 398 -395 397 0
-395 -398 0
397 -398 0
395 -397 398 0
c gate 399 -290 -292 0
-290 -399 0
-292 -399 0
290 292 399 0
c gate 400 -293 -399 0
-293 -400 0
-399 -400 0
293 399 400 0
c gate 401 -387 -390 0
-387 -401 0
-390 -401 0
387 390 401 0
c gate 402 400 -401 0
400 -402 0
-401 -402 0
-400 401 402 0
c gate 403 -400 401 0
-400 -403 0
401 -403 0
400 -401 403 0
c gate 404 -402 -403 0
-402 -404 0
-403 -404 0
402 403 404 0
c gate 405 2 17 0
2 -405 0
17 -405 0
-2 -17 405 0
c gate 406 1 18 0
1 -406 0
18 -406 0
-1 -18 406 0
c gate 407 405 406 0
405 -407 0
406 -407 0
-405 -406 407 0
c gate 408 -404 -407 0
-404 -408 0
-407 -408 0
404 407 408 0
c gate 409 404 407 0
404 -409 0
407 -409 0
-404 -407 409 0
c gate 410 -408 -409 0
-408 -410 0
-409 -410 0
408 409 410 0
c gate 411 395 -397 0
395 -411 0
-397 -411 0
-395 397 411 0
c gate 412 -398 -411 0
-398 -412 0
-411 -412 0
398 411 412 0
c gate 413 410 412 0
410 -413 0
412 -413 0
-410 -412 413 0
c gate 414 -398 -413 0
-398 -414 0
-413 -414 0
398 413 414 0
c gate 415 -310 -312 0
-310 -415 0
-312 -415 0
310 312 415 0
c gate 416 -313 -415 0
-313 -416 0
-415 -416 0
313 415 416 0
c gate 417 -414 416 0
-414 -417 0
416 -417 0
414 -416 417 0
c gate 418 -402 -409 0
-402 -418 0
-409 -418 0
402 409 418 0
c gate 419 414 -416 0
414 -419 0
-416 -419 0
-414 416 419 0
c gate 420 -417 -419 0
-417 -420 0
-419 -420 0
417 419 420 0
c gate 421 -418 420 0
-418 -421 0
420 -421 0
418 -420 421 0
c gate 422 -417 -421 0
-417 -422 0
-421 -422 0
417 421 422 0
c gate 423 335 -337 0
335 -423 0
-337 -423 0
-335 337 423 0
c gate 424 -338 -423 0
-338 -424 0
-423 -424 0
338 423 424 0
c gate 425 -422 424 0
-422 -425 0
424 -425 0
422 -424 425 0
c gate 426 2 20 0
2 -426 0
20 -426 0
-2 -20 426 0
c gate 427 422 -424 0
422 -427 0
-424 -427 0
-422 424 427 0
c gate 428 -425 -427 0
-425 -428 0
-427 -428 0
425 427 428 0
c gate 429 426 428 0
426 -429 0
428 -429 0
-426 -428 429 0
c gate 430 -425 -429 0
-425 -430 0
-429 -430 0
425 429 430 0
c gate 431 -351 -353 0
-351 -431 0
-353 -431 0
351 353 431 0
c gate 432 -354 -431 0
-354 -432 0
-431 -432 0
354 431 432 0
c gate 433 -430 432 0
-430 -433 0
432 -433 0
430 -432 433 0
c gate 434 6 11 0
6 -434 0
11 -434 0
-6 -11 434 0
c gate 435 5 12 0
5 -435 0
12 -435 0
-5 -12 435 0
c gate 436 434 435 0
434 -436 0
435 -436 0
-434 -435 436 0
c gate 437 4 13 0
4 -437 0
13 -437 0
-4 -13 437 0
c gate 438 -434 -435 0
-434 -438 0
-435 -438 0
434 435 438 0
c gate 439 -436 -438 0
-436 -439 0
-438 -439 0
436 438 439 0
c gate 440 437 439 0
437 -440 0
439 -440 0
-437 -439 440 0
c gate 441 -436 -440 0
-436 -441 0
-440 -441 0
436 440 441 0
c gate 442 -376 -377 0
-376 -442 0
-377 -442 0
376 377 442 0
c gate 443 -378 -442 0
-378 -443 0
-442 -443 0
378 442 443 0
c gate 444 -441 443 0
-441 -444 0
443 -444 0
441 -443 444 0
c gate 445 441 -443 0
441 -445 0
-443 -445 0
-441 443 445 0
c gate 446 -444 -445 0
-444 -446 0
-445 -446 0
444 445 446 0
c gate 447 2 16 0
2 -447 0
16 -447 0
-2 -16 447 0
c gate 448 4 14 0
4 -448 0
14 -448 0
-4 -14 448 0
c gate 449 3 15 0
3 -449 0
15 -449 0
-3 -15 449 0
c gate 450 -448 -449 0
-448 -450 0
-449 -450 0
448 449 450 0
c gate 451 448 449 0
448 -451 0
449 -451 0
-448 -449 451 0
c gate 452 -450 -451 0
-450 -452 0
-451 -452 0
450 451 452 0
c gate 453 447 452 0
447 -453 0
452 -453 0
-447 -452 453 0
c gate 454 -447 -452 0
-447 -454 0
-452 -454 0
447 452 454 0
c gate 455 -453 -454 0
-453 -455 0
-454 -455 0
453 454 455 0
c gate 456 446 455 0
446 -456 0
455 -456 0
-446 -455 456 0
c gate 457 -444 -456 0
-444 -457 0
-456 -457 0
444 456 457 0
c gate 458 -391 -393 0
-391 -458 0
-393 -458 0
391 393 458 0
c gate 459 -394 -458 0
-394 -459 0
-458 -459 0
394 458 459 0
c gate 460 -457 459 0
-457 -460 0
459 -460 0
457 -459 460 0
c gate 461 -405 -406 0
-405 -461 0
-406 -461 0
405 406 461 0
c gate 462 -407 -461 0
-407 -462 0
-461 -462 0
407 461 462 0
c gate 463 -451 -453 0
-451 -463 0
-453 -463 0
451 453 463 0
c gate 464 -462 463 0
-462 -464 0
463 -464 0
462 -463 464 0
c gate 465 462 -463 0
462 -465 0
-463 -465 0
-462 463 465 0
c gate 466 -464 -465 0
-464 -466 0
-465 -466 0
464 465 466 0
c gate 467 457 -459 0
457 -467 0
-459 -467 0
-457 459 467 0
c gate 468 -460 -467 0
-460 -468 0
-467 -468 0
460 467 468 0
c gate 469 466 468 0
466 -469 0
468 -469 0
-466 -468 469 0
c gate 470 -460 -469 0
-460 -470 0
-469 -470 0
460 469 470 0
c gate 471 -410 -412 0
-410 -471 0
-412 -471 0
410 412 471 0
c gate 472 -413 -471 0
-413 -472 0
-471 -472 0
413 471 472 0
c gate 473 -470 472 0
-470 -473 0
472 -473 0
470 -472 473 0
c gate 474 470 -472 0
470 -474 0
-472 -474 0
-470 472 474 0
c gate 475 -473 -474 0
-473 -475 0
-474 -475 0
473 474 475 0
c gate 476 465 475 0
465 -476 0
475 -476 0
-465 -475 476 0
c gate 477 -473 -476 0
-473 -477 0
-476 -477 0
473 476 477 0
c gate 478 418 -420 0
418 -478 0
-420 -478 0
-418 420 478 0
c gate 479 -421 -478 0
-421 -479 0
-478 -479 0
421 478 479 0
c gate 480 -477 479 0
-477 -480 0
479 -480 0
477 -479 480 0
c gate 481 1 20 0
1 -481 0
20 -481 0
-1 -20 481 0
c gate 482 477 -479 0
477 -482 0
-479 -482 0
-477 479 482 0
c gate 483 -480 -482 0
-480 -483 0
-482 -483 0
480 482 483 0
c gate 484 481 483 0
481 -484 0
483 -484 0
-481 -483 484 0
c gate 485 -480 -484 0
-480 -485 0
-484 -485 0
480 484 485 0
c gate 486 -426 -428 0
-426 -486 0
-428 -486 0
426 428 486 0
c gate 487 -429 -486 0
-429 -487 0
-486 -487 0
429 486 487 0
c gate 488 485 -487 0
485 -488 0
-487 -488 0
-485 487 488 0
c gate 489 -485 487 0
-485 -489 0
487 -489 0
485 -487 489 0
c gate 490 5 11 0
5 -490 0
11 -490 0
-5 -11 490 0
c gate 491 4 12 0
4 -491 0
12 -491 0
-4 -12 491 0
c gate 492 490 491 0
490 -492 0
491 -492 0
-490 -491 492 0
c gate 493 3 13 0
3 -493 0
13 -493 0
-3 -13 493 0
c gate 494 -490 -491 0
-490 -494 0
-491 -494 0
490 491 494 0
c gate 495 -492 -494 0
-492 -495 0
-494 -495 0
492 494 495 0
c gate 496 493 495 0
493 -496 0
495 -496 0
-493 -495 496 0
c gate 497 -492 -496 0
-492 -497 0
-496 -497 0
492 496 497 0
c gate 498 -437 -439 0
-437 -498 0
-439 -498 0
437 439 498 0
c gate 499 -440 -498 0
-440 -499 0
-498 -499 0
440 498 499 0
c gate 500 -497 499 0
-497 -500 0
499 -500 0
497 -499 500 0
c gate 501 1 16 0
1 -501 0
16 -501 0
-1 -16 501 0
c gate 502 3 14 0
3 -502 0
14 -502 0
-3 -14 502 0
c gate 503 2 15 0
2 -503 0
15 -503 0
-2 -15 503 0
c gate 504 -502 -503 0
-502 -504 0
-503 -504 0
502 503 504 0
c gate 505 502 503 0
502 -505 0
503 -505 0
-502 -503 505 0
c gate 506 -504 -505 0
-504 -506 0
-505 -506 0
504 505 506 0
c gate 507 501 506 0
501 -507 0
506 -507 0
-501 -506 507 0
c gate 508 -501 -506 0
-501 -508 0
-506 -508 0
501 506 508 0
c gate 509 -507 -508 0
-507 -509 0
-508 -509 0
507 508 509 0
c gate 510 497 -499 0
497 -510 0
-499 -510 0
-497 499 510 0
c gate 511 -500 -510 0
-500 -511 0
-510 -511 0
500 510 511 0
c gate 512 509 511 0
509 -512 0
511 -512 0
-509 -511 512 0
c gate 513 -500 -512 0
-500 -513 0
-512 -513 0
500 512 513 0
c gate 514 -446 -455 0
-446 -514 0
-455 -514 0
446 455 514 0
c gate 515 -456 -514 0
-456 -515 0
-514 -515 0
456 514 515 0
c gate 516 -513 515 0
-513 -516 0
515 -516 0
513 -515 516 0
c gate 517 513 -515 0
513 -517 0
-515 -517 0
-513 515 517 0
c gate 518 -516 -517 0
-516 -518 0
-517 -518 0
516 517 518 0
c gate 519 1 17 0
1 -519 0
17 -519 0
-1 -17 519 0
c gate 520 -505 -507 0
-505 -520 0
-507 -520 0
505 507 520 0
c gate 521 519 -520 0
519 -521 0
-520 -521 0
-519 520 521 0
c gate 522 -519 520 0
-519 -522 0
520 -522 0
519 -520 522 0
c gate 523 -521 -522 0
-521 -523 0
-522 -523 0
521 522 523 0
c gate 524 518 523 0
518 -524 0
523 -524 0
-518 -523 524 0
c gate 525 -516 -524 0
-516 -525 0
-524 -525 0
516 524 525 0
c gate 526 -466 -468 0
-466 -526 0
-468 -526 0
466 468 526 0
c gate 527 -469 -526 0
-469 -527 0
-526 -527 0
469 526 527 0
c gate 528 -525 527 0
-525 -528 0
527 -528 0
525 -527 528 0
c gate 529 525 -527 0
525 -529 0
-527 -529 0
-525 527 529 0
c gate 530 -528 -529 0
-528 -530 0
-529 -530 0
528 529 530 0
c gate 531 521 530 0
521 -531 0
530 -531 0
-521 -530 531 0
c gate 532 -528 -531 0
-528 -532 0
-531 -532 0
528 531 532 0
c gate 533 -465 -475 0
-465 -533 0
-475 -533 0
465 475 533 0
c gate 534 -476 -533 0
-476 -534 0
-533 -534 0
476 533 534 0
c gate 535 -532 534 0
-532 -535 0
534 -535 0
532 -534 535 0
c gate 536 -481 -483 0
-481 -536 0
-483 -536 0
481 483 536 0
c gate 537 -484 -536 0
-484 -537 0
-536 -537 0
484 536 537 0
c gate 538 535 537 0
535 -538 0
537 -538 0
-535 -537 538 0
c gate 539 -489 -538 0
-489 -539 0
-538 -539 0
489 538 539 0
c gate 540 532 -534 0
532 -540 0
-534 -540 0
-532 534 540 0
c gate 541 -535 -540 0
-535 -541 0
-540 -541 0
535 540 541 0
c gate 542 -521 -530 0
-521 -542 0
-530 -542 0
521 530 542 0
c gate 543 -531 -542 0
-531 -543 0
-542 -543 0
531 542 543 0
c gate 544 4 11 0
4 -544 0
11 -544 0
-4 -11 544 0
c gate 545 3 12 0
3 -545 0
12 -545 0
-3 -12 545 0
c gate 546 544 545 0
544 -546 0
545 -546 0
-544 -545 546 0
c gate 547 -544 -545 0
-544 -547 0
-545 -547 0
544 545 547 0
c gate 548 -546 -547 0
-546 -548 0
-547 -548 0
546 547 548 0
c gate 549 2 13 0
2 -549 0
13 -549 0
-2 -13 549 0
c gate 550 548 549 0
548 -550 0
549 -550 0
-548 -549 550 0
c gate 551 -546 -550 0
-546 -551 0
-550 -551 0
546 550 551 0
c gate 552 -493 -495 0
-493 -552 0
-495 -552 0
493 495 552 0
c gate 553 -496 -552 0
-496 -553 0
-552 -553 0
496 552 553 0
c gate 554 -551 553 0
-551 -554 0
553 -554 0
551 -553 554 0
c gate 555 2 14 0
2 -555 0
14 -555 0
-2 -14 555 0
c gate 556 1 15 0
1 -556 0
15 -556 0
-1 -15 556 0
c gate 557 -555 -556 0
-555 -557 0
-556 -557 0
555 556 557 0
c gate 558 555 556 0
555 -558 0
556 -558 0
-555 -556 558 0
c gate 559 -557 -558 0
-557 -559 0
-558 -559 0
557 558 559 0
c gate 560 551 -553 0
551 -560 0
-553 -560 0
-551 553 560 0
c gate 561 -554 -560 0
-554 -561 0
-560 -561 0
554 560 561 0
c gate 562 559 561 0
559 -562 0
561 -562 0
-559 -561 562 0
c gate 563 -554 -562 0
-554 -563 0
-562 -563 0
554 562 563 0
c gate 564 -509 -511 0
-509 -564 0
-511 -564 0
509 511 564 0
c gate 565 -512 -564 0
-512 -565 0
-564 -565 0
512 564 565 0
c gate 566 563 -565 0
563 -566 0
-565 -566 0
-563 565 566 0
c gate 567 -563 565 0
-563 -567 0
565 -567 0
563 -565 567 0
c gate 568 -558 -567 0
-558 -568 0
-567 -568 0
558 567 568 0
c gate 569 -566 -568 0
-566 -569 0
-568 -569 0
566 568 569 0
c gate 570 -518 -523 0
-518 -570 0
-523 -570 0
518 523 570 0
c gate 571 -524 -570 0
-524 -571 0
-570 -571 0
524 570 571 0
c gate 572 569 571 0
569 -572 0
571 -572 0
-569 -571 572 0
c gate 573 543 572 0
543 -573 0
572 -573 0
-543 -572 573 0
c gate 574 541 573 0
541 -574 0
573 -574 0
-541 -573 574 0
c gate 575 537 574 0
537 -575 0
574 -575 0
-537 -574 575 0
c gate 576 539 -575 0
539 -576 0
-575 -576 0
-539 575 576 0
c gate 577 -488 -576 0
-488 -577 0
-576 -577 0
488 576 577 0
c gate 578 -433 -577 0
-433 -578 0
-577 -578 0
433 577 578 0
c gate 579 430 -432 0
430 -579 0
-432 -579 0
-430 432 579 0
c gate 580 355 -365 0
355 -580 0
-365 -580 0
-355 365 580 0
c gate 581 -579 -580 0
-579 -581 0
-580 -581 0
579 580 581 0
c gate 582 -578 581 0
-578 -582 0
581 -582 0
578 -581 582 0
c gate 583 371 -582 0
371 -583 0
-582 -583 0
-371 582 583 0
c gate 584 367 -369 0
367 -584 0
-369 -584 0
-367 369 584 0
c gate 585 231 -233 0
231 -585 0
-233 -585 0
-231 233 585 0
c gate 586 -584 -585 0
-584 -586 0
-585 -586 0
584 585 586 0
c gate 587 -583 586 0
-583 -587 0
586 -587 0
583 -586 587 0
c gate 588 236 -587 0
236 -588 0
-587 -588 0
-236 587 588 0
c gate 589 -168 -588 0
-168 -589 0
-588 -589 0
168 588 589 0
c gate 590 539 581 0
539 -590 0
581 -590 0
-539 -581 590 0
c gate 591 586 590 0
586 -591 0
590 -591 0
-586 -590 591 0
c gate 592 -524 -569 0
-524 -592 0
-569 -592 0
524 569 592 0
c gate 593 567 -571 0
567 -593 0
-571 -593 0
-567 571 593 0
c gate 594 -592 -593 0
-592 -594 0
-593 -594 0
592 593 594 0
c gate 595 -567 570 0
-567 -595 0
570 -595 0
567 -570 595 0
c gate 596 1 14 0
1 -596 0
14 -596 0
-1 -14 596 0
c gate 597 -548 -549 0
-548 -597 0
-549 -597 0
548 549 597 0
c gate 598 -550 -597 0
-550 -598 0
-597 -598 0
550 597 598 0
c gate 599 3 11 0
3 -599 0
11 -599 0
-3 -11 599 0
c gate 600 2 12 0
2 -600 0
12 -600 0
-2 -12 600 0
c gate 601 599 600 0
599 -601 0
600 -601 0
-599 -600 601 0
c gate 602 -599 -600 0
-599 -602 0
-600 -602 0
599 600 602 0
c gate 603 1 13 0
1 -603 0
13 -603 0
-1 -13 603 0
c gate 604 -602 603 0
-602 -604 0
603 -604 0
602 -603 604 0
c gate 605 -601 -604 0
-601 -605 0
-604 -605 0
601 604 605 0
c gate 606 598 -605 0
598 -606 0
-605 -606 0
-598 605 606 0
c gate 607 -598 605 0
-598 -607 0
605 -607 0
598 -605 607 0
c gate 608 -606 -607 0
-606 -608 0
-607 -608 0
606 607 608 0
c gate 609 -596 -608 0
-596 -609 0
-608 -609 0
596 608 609 0
c gate 610 596 608 0
596 -610 0
608 -610 0
-596 -608 610 0
c gate 611 -3 -13 0
-3 -611 0
-13 -611 0
3 13 611 0
c gate 612 -493 -611 0
-493 -612 0
-611 -612 0
493 611 612 0
c gate 613 1 11 0
1 -613 0
11 -613 0
-1 -11 613 0
c gate 614 600 613 0
600 -614 0
613 -614 0
-600 -613 614 0
c gate 615 -612 614 0
-612 -615 0
614 -615 0
612 -614 615 0
c gate 616 -610 615 0
-610 -616 0
615 -616 0
610 -615 616 0
c gate 617 -609 616 0
-609 -617 0
616 -617 0
609 -616 617 0
c gate 618 -559 -561 0
-559 -618 0
-561 -618 0
559 561 618 0
c gate 619 -562 -618 0
-562 -619 0
-618 -619 0
562 618 619 0
c gate 620 617 619 0
617 -620 0
619 -620 0
-617 -619 620 0
c gate 621 -606 -610 0
-606 -621 0
-610 -621 0
606 610 621 0
c gate 622 -620 621 0
-620 -622 0
621 -622 0
620 -621 622 0
c gate 623 -617 -619 0
-617 -623 0
-619 -623 0
617 619 623 0
c gate 624 -566 -567 0
-566 -624 0
-567 -624 0
566 567 624 0
c gate 625 -558 -624 0
-558 -625 0
-624 -625 0
558 624 625 0
c gate 626 -623 -625 0
-623 -626 0
-625 -626 0
623 625 626 0
c gate 627 -622 626 0
-622 -627 0
626 -627 0
622 -626 627 0
c gate 628 -595 627 0
-595 -628 0
627 -628 0
595 -627 628 0
c gate 629 -594 628 0
-594 -629 0
628 -629 0
594 -628 629 0
c gate 630 543 629 0
543 -630 0
629 -630 0
-543 -629 630 0
c gate 631 541 630 0
541 -631 0
630 -631 0
-541 -630 631 0
c gate 632 -168 631 0
-168 -632 0
631 -632 0
168 -631 632 0
c gate 633 -433 632 0
-433 -633 0
632 -633 0
433 -632 633 0
c gate 634 -535 -537 0
-535 -634 0
-537 -634 0
535 537 634 0
c gate 635 -488 -634 0
-488 -635 0
-634 -635 0
488 634 635 0
c gate 636 633 635 0
633 -636 0
635 -636 0
-633 -635 636 0
c gate 637 236 371 0
236 -637 0
371 -637 0
-236 -371 637 0
c gate 638 636 637 0
636 -638 0
637 -638 0
-636 -637 638 0
c gate 639 591 638 0
591 -639 0
638 -639 0
-591 -638 639 0
c gate 640 -589 -639 0
-589 -640 0
-639 -640 0
589 639 640 0
c gate 641 -162 -165 0
-162 -641 0
-165 -641 0
162 165 641 0
c gate 642 8 20 0
8 -642 0
20 -642 0
-8 -20 642 0
c gate 643 -156 -159 0
-156 -643 0
-159 -643 0
156 159 643 0
c gate 644 -148 -150 0
-148 -644 0
-150 -644 0
148 150 644 0
c gate 645 10 18 0
10 -645 0
18 -645 0
-10 -18 645 0
c gate 646 9 19 0
9 -646 0
19 -646 0
-9 -19 646 0
c gate 647 645 -646 0
645 -647 0
-646 -647 0
-645 646 647 0
c gate 648 -645 646 0
-645 -648 0
646 -648 0
645 -646 648 0
c gate 649 -647 -648 0
-647 -649 0
-648 -649 0
647 648 649 0
c gate 650 -644 -649 0
-644 -650 0
-649 -650 0
644 649 650 0
c gate 651 644 649 0
644 -651 0
649 -651 0
-644 -649 651 0
c gate 652 -650 -651 0
-650 -652 0
-651 -652 0
650 651 652 0
c gate 653 153 652 0
153 -653 0
652 -653 0
-153 -652 653 0
c gate 654 -153 -652 0
-153 -654 0
-652 -654 0
153 652 654 0
c gate 655 -653 -654 0
-653 -655 0
-654 -655 0
653 654 655 0
c gate 656 -643 655 0
-643 -656 0
655 -656 0
643 -655 656 0
c gate 657 643 -655 0
643 -657 0
-655 -657 0
-643 655 657 0
c gate 658 -656 -657 0
-656 -658 0
-657 -658 0
656 657 658 0
c gate 659 642 658 0
642 -659 0
658 -659 0
-642 -658 659 0
c gate 660 -642 -658 0
-642 -660 0
-658 -660 0
642 658 660 0
c gate 661 -659 -660 0
-659 -661 0
-660 -661 0
659 660 661 0
c gate 662 -641 661 0
-641 -662 0
661 -662 0
641 -661 662 0
c gate 663 641 -661 0
641 -663 0
-661 -663 0
-641 661 663 0
c gate 664 -662 -663 0
-662 -664 0
-663 -664 0
662 663 664 0
c gate 665 -640 664 0
-640 -665 0
664 -665 0
640 -664 665 0
c gate 666 -656 -659 0
-656 -666 0
-659 -666 0
656 659 666 0
c gate 667 9 20 0
9 -667 0
20 -667 0
-9 -20 667 0
c gate 668 10 19 0
10 -668 0
19 -668 0
-10 -19 668 0
c gate 669 -145 -650 0
-145 -669 0
-650 -669 0
145 650 669 0
c gate 670 668 -669 0
668 -670 0
-669 -670 0
-668 669 670 0
c gate 671 -650 -668 0
-650 -671 0
-668 -671 0
650 668 671 0
c gate 672 -670 -671 0
-670 -672 0
-671 -672 0
670 671 672 0
c gate 673 653 -672 0
653 -673 0
-672 -673 0
-653 672 673 0
c gate 674 -653 672 0
-653 -674 0
672 -674 0
653 -672 674 0
c gate 675 -673 -674 0
-673 -675 0
-674 -675 0
673 674 675 0
c gate 676 667 -675 0
667 -676 0
-675 -676 0
-667 675 676 0
c gate 677 -667 675 0
-667 -677 0
675 -677 0
667 -675 677 0
c gate 678 -676 -677 0
-676 -678 0
-677 -678 0
676 677 678 0
c gate 679 -666 678 0
-666 -679 0
678 -679 0
666 -678 679 0
c gate 680 -662 -679 0
-662 -680 0
-679 -680 0
662 679 680 0
c gate 681 -665 680 0
-665 -681 0
680 -681 0
665 -680 681 0
c gate 682 666 -678 0
666 -682 0
-678 -682 0
-666 678 682 0
c gate 683 670 676 0
670 -683 0
676 -683 0
-670 -676 683 0
c gate 684 -682 683 0
-682 -684 0
683 -684 0
682 -683 684 0
c gate 685 -681 684 0
-681 -685 0
684 -685 0
681 -684 685 0
c gate 686 -679 -682 0
-679 -686 0
-682 -686 0
679 682 686 0
c gate 687 588 686 0
588 -687 0
686 -687 0
-588 -686 687 0
c gate 688 665 687 0
665 -688 0
687 -688 0
-665 -687 688 0
c gate 689 -617 -630 0
-617 -689 0
-630 -689 0
617 630 689 0
c gate 690 -688 689 0
-688 -690 0
689 -690 0
688 -689 690 0
c gate 691 -685 690 0
-685 -691 0
690 -691 0
685 -690 691 0
c PO
-691 0
